38 20
11 433
19 904
7 846
15 816
14 461
9 286
19 274
9 936
15 565
17 643
12 847
11 155
15 75
10 724
6 45
15 741
15 58
15 82
13 176
18 949
18 263
1 585
12 429
9 138
19 621
6 687
17 30
1 633
12 478
5 151
4 290
5 354
17 593
8 871
17 494
11 897
5 213
14 779
